presolving:
(round 1, fast)       145 del vars, 0 del conss, 0 add conss, 0 chg bounds, 0 chg sides, 0 chg coeffs, 0 upgd conss, 0 impls, 288 clqs
(round 2, exhaustive) 145 del vars, 0 del conss, 0 add conss, 0 chg bounds, 0 chg sides, 0 chg coeffs, 288 upgd conss, 0 impls, 288 clqs
   (1.0s) probing: 51/20592 (0.2%) - 0 fixings, 0 aggregations, 0 implications, 0 bound changes
   (1.0s) probing aborted: 50/50 successive totally useless probings
   Deactivated symmetry handling methods, since SCIP was built without symmetry detector (SYM=none).
presolving (3 rounds: 3 fast, 2 medium, 2 exhaustive):
 145 deleted vars, 0 deleted constraints, 0 added constraints, 0 tightened bounds, 0 added holes, 0 changed sides, 0 changed coefficients
 0 implications, 288 cliques
presolved problem has 20735 variables (20592 bin, 0 int, 0 impl, 143 cont) and 20594 constraints
    288 constraints of type <setppc>
  20306 constraints of type <linear>
Presolving Time: 1.00

 time | node  | left  |LP iter|LP it/n|mem/heur|mdpt |vars |cons |rows |cuts |sepa|confs|strbr|  dualbound   | primalbound  |  gap   | compl. 
p 2.0s|     1 |     0 |   131 |     - | vbounds|   0 |  20k|  20k|  20k|   0 |  0 |   4 |   0 | 0.000000e+00 | 9.402489e+04 |    Inf | unknown
  2.0s|     1 |     0 |   521 |     - |   207M |   0 |  20k|  20k|  20k|   0 |  0 |   4 |   0 | 2.016744e+04 | 9.402489e+04 | 366.22%| unknown
  3.0s|     1 |     0 |   665 |     - |   212M |   0 |  20k|  20k|  20k|  98 |  1 |   4 |   0 | 2.846946e+04 | 9.402489e+04 | 230.27%| unknown
  3.0s|     1 |     0 |   767 |     - |   215M |   0 |  20k|  20k|  20k| 182 |  2 |   4 |   0 | 3.220326e+04 | 9.402489e+04 | 191.97%| unknown
  4.0s|     1 |     0 |   779 |     - |   220M |   0 |  20k|  20k|  20k| 189 |  3 |   4 |   0 | 3.232954e+04 | 9.402489e+04 | 190.83%| unknown
  4.0s|     1 |     0 |   830 |     - |   223M |   0 |  20k|  20k|  20k| 210 |  4 |   4 |   0 | 3.232954e+04 | 9.402489e+04 | 190.83%| unknown
  5.0s|     1 |     0 |   881 |     - |   227M |   0 |  20k|  20k|  20k| 243 |  5 |   4 |   0 | 3.242814e+04 | 9.402489e+04 | 189.95%| unknown
  5.0s|     1 |     0 |   910 |     - |   231M |   0 |  20k|  20k|  20k| 260 |  6 |   4 |   0 | 3.242889e+04 | 9.402489e+04 | 189.94%| unknown
  6.0s|     1 |     0 |   934 |     - |   234M |   0 |  20k|  20k|  20k| 271 |  7 |   4 |   0 | 3.242889e+04 | 9.402489e+04 | 189.94%| unknown
  6.0s|     1 |     0 |  1002 |     - |   237M |   0 |  20k|  20k|  20k| 305 |  8 |   4 |   0 | 3.288557e+04 | 9.402489e+04 | 185.92%| unknown
  7.0s|     1 |     0 |  1060 |     - |   242M |   0 |  20k|  20k|  20k| 331 |  9 |   4 |   0 | 3.293086e+04 | 9.402489e+04 | 185.52%| unknown
  7.0s|     1 |     0 |  1133 |     - |   250M |   0 |  20k|  20k|  20k| 352 | 10 |   4 |   0 | 3.305565e+04 | 9.402489e+04 | 184.44%| unknown
  8.0s|     1 |     0 |  1181 |     - |   252M |   0 |  20k|  20k|  20k| 377 | 11 |   4 |   0 | 3.312607e+04 | 9.402489e+04 | 183.84%| unknown
  8.0s|     1 |     0 |  1227 |     - |   254M |   0 |  20k|  20k|  20k| 396 | 12 |   4 |   0 | 3.324221e+04 | 9.402489e+04 | 182.85%| unknown
  8.0s|     1 |     0 |  1281 |     - |   256M |   0 |  20k|  20k|  21k| 420 | 13 |   4 |   0 | 3.336300e+04 | 9.402489e+04 | 181.82%| unknown
 time | node  | left  |LP iter|LP it/n|mem/heur|mdpt |vars |cons |rows |cuts |sepa|confs|strbr|  dualbound   | primalbound  |  gap   | compl. 
  9.0s|     1 |     0 |  1331 |     - |   258M |   0 |  20k|  20k|  21k| 442 | 14 |   4 |   0 | 3.349070e+04 | 9.402489e+04 | 180.75%| unknown
 10.0s|     1 |     0 |  1359 |     - |   260M |   0 |  20k|  20k|  20k| 459 | 15 |   4 |   0 | 3.349070e+04 | 9.402489e+04 | 180.75%| unknown
 10.0s|     1 |     0 |  1382 |     - |   260M |   0 |  20k|  20k|  20k| 468 | 16 |   4 |   0 | 3.353817e+04 | 9.402489e+04 | 180.35%| unknown
 10.0s|     1 |     0 |  1409 |     - |   264M |   0 |  20k|  20k|  20k| 485 | 17 |   4 |   0 | 3.353817e+04 | 9.402489e+04 | 180.35%| unknown
 11.0s|     1 |     0 |  1445 |     - |   266M |   0 |  20k|  20k|  21k| 503 | 18 |   4 |   0 | 3.353817e+04 | 9.402489e+04 | 180.35%| unknown
 11.0s|     1 |     0 |  1466 |     - |   268M |   0 |  20k|  20k|  21k| 516 | 19 |   4 |   0 | 3.353817e+04 | 9.402489e+04 | 180.35%| unknown
 12.0s|     1 |     0 |  1485 |     - |   270M |   0 |  20k|  20k|  21k| 529 | 20 |   4 |   0 | 3.353817e+04 | 9.402489e+04 | 180.35%| unknown
 12.0s|     1 |     0 |  1496 |     - |   270M |   0 |  20k|  20k|  20k| 538 | 21 |   4 |   0 | 3.353817e+04 | 9.402489e+04 | 180.35%| unknown
 13.0s|     1 |     0 |  1506 |     - |   270M |   0 |  20k|  20k|  20k| 544 | 22 |   4 |   0 | 3.353817e+04 | 9.402489e+04 | 180.35%| unknown
 13.0s|     1 |     0 |  1525 |     - |   270M |   0 |  20k|  20k|  20k| 555 | 23 |   4 |   0 | 3.353817e+04 | 9.402489e+04 | 180.35%| unknown
 13.0s|     1 |     0 |  1533 |     - |   270M |   0 |  20k|  20k|  20k| 562 | 24 |   4 |   0 | 3.353817e+04 | 9.402489e+04 | 180.35%| unknown
 14.0s|     1 |     0 |  1547 |     - |   270M |   0 |  20k|  20k|  20k| 574 | 25 |   4 |   0 | 3.353817e+04 | 9.402489e+04 | 180.35%| unknown
 14.0s|     1 |     0 |  1552 |     - |   270M |   0 |  20k|  20k|  20k| 578 | 26 |   4 |   0 | 3.353817e+04 | 9.402489e+04 | 180.35%| unknown
 15.0s|     1 |     0 |  1554 |     - |   270M |   0 |  20k|  20k|  20k| 580 | 27 |   4 |   0 | 3.353817e+04 | 9.402489e+04 | 180.35%| unknown
 54.0s|     1 |     2 |  6384 |     - |   276M |   0 |  20k|  20k|  20k| 580 | 27 |  11 |  46 | 3.353983e+04 | 9.402489e+04 | 180.34%| unknown
 time | node  | left  |LP iter|LP it/n|mem/heur|mdpt |vars |cons |rows |cuts |sepa|confs|strbr|  dualbound   | primalbound  |  gap   | compl. 
  431s|   100 |    99 | 38529 | 374.8 |   343M |  23 |  20k|  20k|  20k|1127 |  1 |  94 |1487 | 3.354136e+04 | 9.402489e+04 | 180.33%| unknown

SCIP Status        : solving was interrupted [time limit reached]
Solving Time (sec) : 600.00
Solving Nodes      : 165
Primal Bound       : +9.40248938580948e+04 (1 solutions)
Dual Bound         : +3.35413909916756e+04
Gap                : 180.32 %
Trying to solve problem with MTZ Solver Method...
Starting Solver, time limit setted to 10 minutes
Route:  [[0, 2], [1, 3], [2, 1], [3, 4], [4, 5], [5, 6], [6, 7], [7, 8], [8, 9], [9, 10], [10, 11], [11, 12], [12, 13], [13, 14], [14, 15], [15, 16], [16, 17], [17, 18], [18, 19], [19, 20], [20, 21], [21, 22], [22, 23], [23, 24], [24, 25], [25, 26], [26, 27], [27, 28], [28, 29], [29, 30], [30, 31], [31, 32], [32, 33], [33, 34], [34, 35], [35, 36], [36, 37], [37, 38], [38, 39], [39, 40], [40, 41], [41, 42], [42, 43], [43, 44], [44, 45], [45, 46], [46, 47], [47, 48], [48, 49], [49, 50], [50, 51], [51, 52], [52, 53], [53, 54], [54, 55], [55, 56], [56, 57], [57, 58], [58, 59], [59, 60], [60, 61], [61, 62], [62, 63], [63, 64], [64, 65], [65, 66], [66, 67], [67, 68], [68, 69], [69, 70], [70, 71], [71, 72], [72, 73], [73, 74], [74, 75], [75, 76], [76, 77], [77, 78], [78, 79], [79, 80], [80, 81], [81, 82], [82, 83], [83, 84], [84, 85], [85, 86], [86, 87], [87, 88], [88, 89], [89, 90], [90, 91], [91, 92], [92, 93], [93, 94], [94, 95], [95, 96], [96, 97], [97, 98], [98, 99], [99, 100], [100, 101], [101, 102], [102, 103], [103, 104], [104, 105], [105, 106], [106, 107], [107, 108], [108, 109], [109, 110], [110, 111], [111, 112], [112, 113], [113, 114], [114, 115], [115, 116], [116, 117], [117, 118], [118, 119], [119, 120], [120, 121], [121, 122], [122, 123], [123, 124], [124, 125], [125, 126], [126, 127], [127, 128], [128, 129], [129, 130], [130, 131], [131, 132], [132, 133], [133, 134], [134, 135], [135, 136], [136, 137], [137, 138], [138, 139], [139, 140], [140, 141], [141, 142], [142, 143], [143, 0]]
An Otimal Solution was found, yay!
Objective value: 94024.9
Problem solved in 46850 iterations
Problem solved in 165 nodes
Final Route Configuration succesfully created at:
data/routes/pr144.csv
